NAME : XML100_1262_04
DIMENSION : 101
NB_CLUSTERS : 4
CLUSTERING_ALG : DBSCAN
CLUSTERING_PARAMS : eps(98), minSamples(3)
CLUSTERS
1 0
2 1 2 3 4 5 8 10 11 12 14 16 17 22 23 25 26 27 28 30 31 32 34 35 36 39 40 41 42 43 45 46 47 48 49 50 52 53 54 55 56 57 58 60 62 63 64 66 68 70 71 73 78 79 80 82 84 85 86 89 90 92 93 94 95 98 99 100
3 6 13 15 19 20 21 24 37 38 44 51 59 61 67 75 77 83 87 91 96
4 7 9 18 29 33 65 69 72 74 76 81 88 97
EOF